code/vi_33_20_120.lp
\ LP format - for model browsing. Use MPS format to capture full model detail.
Minimize
  - C
Subject To
 time(1,2): x(2,1,5) + x(2,1,6) + x(2,1,7) + x(2,1,8) + x(2,1,9)
   + x(2,1,10) + x(2,1,11) + x(2,1,12) + x(2,1,13) = 1
 time(1,3): x(3,1,4) + x(3,1,5) + x(3,1,6) + x(3,1,7) + x(3,1,8) + x(3,1,9)
   + x(3,1,10) + x(3,1,11) + x(3,1,12) + x(3,1,13) + x(3,1,14) + x(3,1,15)
   + x(3,1,16) + x(3,1,17) = 1
 time(1,1): x(1,1,8) + x(1,1,9) + x(1,1,10) + x(1,1,11) + x(1,1,12)
   + x(1,1,13) + x(1,1,14) + x(1,1,15) = 1
 time(2,2): x(2,2,0) + x(2,2,1) + x(2,2,2) + x(2,2,3) + x(2,2,4) + x(2,2,5)
   + x(2,2,6) + x(2,2,7) + x(2,2,8) = 1
 time(2,3): x(3,2,0) + x(3,2,1) + x(3,2,2) + x(3,2,3) + x(3,2,4) + x(3,2,5)
   + x(3,2,6) + x(3,2,7) + x(3,2,8) + x(3,2,9) + x(3,2,10) + x(3,2,11)
   + x(3,2,12) + x(3,2,13) = 1
 time(2,1): x(1,2,0) + x(1,2,1) + x(1,2,2) + x(1,2,3) = 1
 time(3,2): x(2,3,9) + x(2,3,10) + x(2,3,11) + x(2,3,12) + x(2,3,13)
   + x(2,3,14) + x(2,3,15) + x(2,3,16) + x(2,3,17) = 1
 time(3,3): x(3,3,3) + x(3,3,4) + x(3,3,5) + x(3,3,6) + x(3,3,7) + x(3,3,8)
   + x(3,3,9) + x(3,3,10) + x(3,3,11) + x(3,3,12) + x(3,3,13) + x(3,3,14)
   + x(3,3,15) + x(3,3,16) = 1
 time(3,1): x(1,3,3) + x(1,3,4) + x(1,3,5) + x(1,3,6) + x(1,3,7) + x(1,3,8)
   + x(1,3,9) + x(1,3,10) = 1
 processing(1,0): <= 1
 processing(1,1): <= 1
 processing(1,2): <= 1
 processing(1,3): <= 1
 processing(1,4): x(3,1,4) <= 1
 processing(1,5): x(2,1,5) + x(3,1,4) + x(3,1,5) <= 1
 processing(1,6): x(2,1,5) + x(2,1,6) + x(3,1,4) + x(3,1,5) + x(3,1,6)
   <= 1
 processing(1,7): x(2,1,5) + x(2,1,6) + x(2,1,7) + x(3,1,5) + x(3,1,6)
   + x(3,1,7) <= 1
 processing(1,8): x(2,1,5) + x(2,1,6) + x(2,1,7) + x(2,1,8) + x(3,1,6)
   + x(3,1,7) + x(3,1,8) + x(1,1,8) <= 1
 processing(1,9): x(2,1,6) + x(2,1,7) + x(2,1,8) + x(2,1,9) + x(3,1,7)
   + x(3,1,8) + x(3,1,9) + x(1,1,8) + x(1,1,9) <= 1
 processing(1,10): x(2,1,7) + x(2,1,8) + x(2,1,9) + x(2,1,10) + x(3,1,8)
   + x(3,1,9) + x(3,1,10) + x(1,1,8) + x(1,1,9) + x(1,1,10) <= 1
 processing(1,11): x(2,1,8) + x(2,1,9) + x(2,1,10) + x(2,1,11) + x(3,1,9)
   + x(3,1,10) + x(3,1,11) + x(1,1,8) + x(1,1,9) + x(1,1,10) + x(1,1,11)
   <= 1
 processing(1,12): x(2,1,9) + x(2,1,10) + x(2,1,11) + x(2,1,12) + x(3,1,10)
   + x(3,1,11) + x(3,1,12) + x(1,1,8) + x(1,1,9) + x(1,1,10) + x(1,1,11)
   + x(1,1,12) <= 1
 processing(1,13): x(2,1,10) + x(2,1,11) + x(2,1,12) + x(2,1,13)
   + x(3,1,11) + x(3,1,12) + x(3,1,13) + x(1,1,9) + x(1,1,10) + x(1,1,11)
   + x(1,1,12) + x(1,1,13) <= 1
 processing(1,14): x(2,1,11) + x(2,1,12) + x(2,1,13) + x(3,1,12)
   + x(3,1,13) + x(3,1,14) + x(1,1,10) + x(1,1,11) + x(1,1,12) + x(1,1,13)
   + x(1,1,14) <= 1
 processing(1,15): x(2,1,12) + x(2,1,13) + x(3,1,13) + x(3,1,14)
   + x(3,1,15) + x(1,1,11) + x(1,1,12) + x(1,1,13) + x(1,1,14) + x(1,1,15)
   <= 1
 processing(1,16): x(2,1,13) + x(3,1,14) + x(3,1,15) + x(3,1,16)
   + x(1,1,12) + x(1,1,13) + x(1,1,14) + x(1,1,15) <= 1
 processing(1,17): x(3,1,15) + x(3,1,16) + x(3,1,17) + x(1,1,13)
   + x(1,1,14) + x(1,1,15) <= 1
 processing(1,18): x(3,1,16) + x(3,1,17) + x(1,1,14) + x(1,1,15) <= 1
 processing(1,19): x(3,1,17) + x(1,1,15) <= 1
 processing(2,0): x(2,2,0) + x(3,2,0) + x(1,2,0) <= 1
 processing(2,1): x(2,2,0) + x(2,2,1) + x(3,2,0) + x(3,2,1) + x(1,2,0)
   + x(1,2,1) <= 1
 processing(2,2): x(2,2,0) + x(2,2,1) + x(2,2,2) + x(3,2,0) + x(3,2,1)
   + x(3,2,2) + x(1,2,0) + x(1,2,1) + x(1,2,2) <= 1
 processing(2,3): x(2,2,0) + x(2,2,1) + x(2,2,2) + x(2,2,3) + x(3,2,1)
   + x(3,2,2) + x(3,2,3) + x(1,2,1) + x(1,2,2) + x(1,2,3) <= 1
 processing(2,4): x(2,2,0) + x(2,2,1) + x(2,2,2) + x(2,2,3) + x(2,2,4)
   + x(3,2,2) + x(3,2,3) + x(3,2,4) + x(1,2,2) + x(1,2,3) <= 1
 processing(2,5): x(2,2,1) + x(2,2,2) + x(2,2,3) + x(2,2,4) + x(2,2,5)
   + x(3,2,3) + x(3,2,4) + x(3,2,5) + x(1,2,3) <= 1
 processing(2,6): x(2,2,2) + x(2,2,3) + x(2,2,4) + x(2,2,5) + x(2,2,6)
   + x(3,2,4) + x(3,2,5) + x(3,2,6) <= 1
 processing(2,7): x(2,2,3) + x(2,2,4) + x(2,2,5) + x(2,2,6) + x(2,2,7)
   + x(3,2,5) + x(3,2,6) + x(3,2,7) <= 1
 processing(2,8): x(2,2,4) + x(2,2,5) + x(2,2,6) + x(2,2,7) + x(2,2,8)
   + x(3,2,6) + x(3,2,7) + x(3,2,8) <= 1
 processing(2,9): x(2,2,5) + x(2,2,6) + x(2,2,7) + x(2,2,8) + x(3,2,7)
   + x(3,2,8) + x(3,2,9) <= 1
 processing(2,10): x(2,2,6) + x(2,2,7) + x(2,2,8) + x(3,2,8) + x(3,2,9)
   + x(3,2,10) <= 1
 processing(2,11): x(2,2,7) + x(2,2,8) + x(3,2,9) + x(3,2,10) + x(3,2,11)
   <= 1
 processing(2,12): x(2,2,8) + x(3,2,10) + x(3,2,11) + x(3,2,12) <= 1
 processing(2,13): x(3,2,11) + x(3,2,12) + x(3,2,13) <= 1
 processing(2,14): x(3,2,12) + x(3,2,13) <= 1
 processing(2,15): x(3,2,13) <= 1
 processing(2,16): <= 1
 processing(2,17): <= 1
 processing(2,18): <= 1
 processing(2,19): <= 1
 processing(3,0): <= 1
 processing(3,1): <= 1
 processing(3,2): <= 1
 processing(3,3): x(3,3,3) + x(1,3,3) <= 1
 processing(3,4): x(3,3,4) + x(1,3,3) + x(1,3,4) <= 1
 processing(3,5): x(3,3,5) + x(1,3,3) + x(1,3,4) + x(1,3,5) <= 1
 processing(3,6): x(3,3,6) + x(1,3,3) + x(1,3,4) + x(1,3,5) + x(1,3,6)
   <= 1
 processing(3,7): x(3,3,7) + x(1,3,3) + x(1,3,4) + x(1,3,5) + x(1,3,6)
   + x(1,3,7) <= 1
 processing(3,8): x(3,3,8) + x(1,3,4) + x(1,3,5) + x(1,3,6) + x(1,3,7)
   + x(1,3,8) <= 1
 processing(3,9): x(2,3,9) + x(3,3,9) + x(1,3,5) + x(1,3,6) + x(1,3,7)
   + x(1,3,8) + x(1,3,9) <= 1
 processing(3,10): x(2,3,9) + x(2,3,10) + x(3,3,10) + x(1,3,6) + x(1,3,7)
   + x(1,3,8) + x(1,3,9) + x(1,3,10) <= 1
 processing(3,11): x(2,3,9) + x(2,3,10) + x(2,3,11) + x(3,3,11) + x(1,3,7)
   + x(1,3,8) + x(1,3,9) + x(1,3,10) <= 1
 processing(3,12): x(2,3,10) + x(2,3,11) + x(2,3,12) + x(3,3,12) + x(1,3,8)
   + x(1,3,9) + x(1,3,10) <= 1
 processing(3,13): x(2,3,11) + x(2,3,12) + x(2,3,13) + x(3,3,13) + x(1,3,9)
   + x(1,3,10) <= 1
 processing(3,14): x(2,3,12) + x(2,3,13) + x(2,3,14) + x(3,3,14)
   + x(1,3,10) <= 1
 processing(3,15): x(2,3,13) + x(2,3,14) + x(2,3,15) + x(3,3,15) <= 1
 processing(3,16): x(2,3,14) + x(2,3,15) + x(2,3,16) + x(3,3,16) <= 1
 processing(3,17): x(2,3,15) + x(2,3,16) + x(2,3,17) <= 1
 processing(3,18): x(2,3,16) + x(2,3,17) <= 1
 processing(3,19): x(2,3,17) <= 1
 ord(1,2): - 5 x(2,1,5) - 6 x(2,1,6) - 7 x(2,1,7) - 8 x(2,1,8) - 9 x(2,1,9)
   - 10 x(2,1,10) - 11 x(2,1,11) - 12 x(2,1,12) - 13 x(2,1,13) + 5 x(2,2,0)
   + 6 x(2,2,1) + 7 x(2,2,2) + 8 x(2,2,3) + 9 x(2,2,4) + 10 x(2,2,5)
   + 11 x(2,2,6) + 12 x(2,2,7) + 13 x(2,2,8) <= 0
 ord(3,2): 9 x(2,1,5) + 10 x(2,1,6) + 11 x(2,1,7) + 12 x(2,1,8)
   + 13 x(2,1,9) + 14 x(2,1,10) + 15 x(2,1,11) + 16 x(2,1,12)
   + 17 x(2,1,13) - 9 x(2,3,9) - 10 x(2,3,10) - 11 x(2,3,11) - 12 x(2,3,12)
   - 13 x(2,3,13) - 14 x(2,3,14) - 15 x(2,3,15) - 16 x(2,3,16)
   - 17 x(2,3,17) <= 0
 ord(3,3): 3 x(3,2,0) + 4 x(3,2,1) + 5 x(3,2,2) + 6 x(3,2,3) + 7 x(3,2,4)
   + 8 x(3,2,5) + 9 x(3,2,6) + 10 x(3,2,7) + 11 x(3,2,8) + 12 x(3,2,9)
   + 13 x(3,2,10) + 14 x(3,2,11) + 15 x(3,2,12) + 16 x(3,2,13) - 3 x(3,3,3)
   - 4 x(3,3,4) - 5 x(3,3,5) - 6 x(3,3,6) - 7 x(3,3,7) - 8 x(3,3,8)
   - 9 x(3,3,9) - 10 x(3,3,10) - 11 x(3,3,11) - 12 x(3,3,12) - 13 x(3,3,13)
   - 14 x(3,3,14) - 15 x(3,3,15) - 16 x(3,3,16) <= 0
 ord(1,3): - 4 x(3,1,4) - 5 x(3,1,5) - 6 x(3,1,6) - 7 x(3,1,7) - 8 x(3,1,8)
   - 9 x(3,1,9) - 10 x(3,1,10) - 11 x(3,1,11) - 12 x(3,1,12) - 13 x(3,1,13)
   - 14 x(3,1,14) - 15 x(3,1,15) - 16 x(3,1,16) - 17 x(3,1,17) + 4 x(3,3,3)
   + 5 x(3,3,4) + 6 x(3,3,5) + 7 x(3,3,6) + 8 x(3,3,7) + 9 x(3,3,8)
   + 10 x(3,3,9) + 11 x(3,3,10) + 12 x(3,3,11) + 13 x(3,3,12)
   + 14 x(3,3,13) + 15 x(3,3,14) + 16 x(3,3,15) + 17 x(3,3,16) <= 0
 ord(3,1): 3 x(1,2,0) + 4 x(1,2,1) + 5 x(1,2,2) + 6 x(1,2,3) - 3 x(1,3,3)
   - 4 x(1,3,4) - 5 x(1,3,5) - 6 x(1,3,6) - 7 x(1,3,7) - 8 x(1,3,8)
   - 9 x(1,3,9) - 10 x(1,3,10) <= 0
 ord(1,1): - 8 x(1,1,8) - 9 x(1,1,9) - 10 x(1,1,10) - 11 x(1,1,11)
   - 12 x(1,1,12) - 13 x(1,1,13) - 14 x(1,1,14) - 15 x(1,1,15) + 8 x(1,3,3)
   + 9 x(1,3,4) + 10 x(1,3,5) + 11 x(1,3,6) + 12 x(1,3,7) + 13 x(1,3,8)
   + 14 x(1,3,9) + 15 x(1,3,10) <= 0
 makespan(2,2): - 5 x(2,2,0) - 6 x(2,2,1) - 7 x(2,2,2) - 8 x(2,2,3)
   - 9 x(2,2,4) - 10 x(2,2,5) - 11 x(2,2,6) - 12 x(2,2,7) - 13 x(2,2,8) + C
   = 0
Bounds
Generals
 x(2,1,5) x(2,1,6) x(2,1,7) x(2,1,8) x(2,1,9) x(2,1,10) x(2,1,11) x(2,1,12)
 x(2,1,13) x(3,1,4) x(3,1,5) x(3,1,6) x(3,1,7) x(3,1,8) x(3,1,9) x(3,1,10)
 x(3,1,11) x(3,1,12) x(3,1,13) x(3,1,14) x(3,1,15) x(3,1,16) x(3,1,17)
 x(1,1,8) x(1,1,9) x(1,1,10) x(1,1,11) x(1,1,12) x(1,1,13) x(1,1,14)
 x(1,1,15) x(2,2,0) x(2,2,1) x(2,2,2) x(2,2,3) x(2,2,4) x(2,2,5) x(2,2,6)
 x(2,2,7) x(2,2,8) x(3,2,0) x(3,2,1) x(3,2,2) x(3,2,3) x(3,2,4) x(3,2,5)
 x(3,2,6) x(3,2,7) x(3,2,8) x(3,2,9) x(3,2,10) x(3,2,11) x(3,2,12)
 x(3,2,13) x(1,2,0) x(1,2,1) x(1,2,2) x(1,2,3) x(2,3,9) x(2,3,10) x(2,3,11)
 x(2,3,12) x(2,3,13) x(2,3,14) x(2,3,15) x(2,3,16) x(2,3,17) x(3,3,3)
 x(3,3,4) x(3,3,5) x(3,3,6) x(3,3,7) x(3,3,8) x(3,3,9) x(3,3,10) x(3,3,11)
 x(3,3,12) x(3,3,13) x(3,3,14) x(3,3,15) x(3,3,16) x(1,3,3) x(1,3,4)
 x(1,3,5) x(1,3,6) x(1,3,7) x(1,3,8) x(1,3,9) x(1,3,10) C
End
