code/vi_33_20_120.sol
Optimal (within gap tolerance) - objective value -13 - solution time 0
8 x(2,1,13) 1 0
22 x(3,1,17) 1 0
23 x(1,1,8) 1 0
39 x(2,2,8) 1 0
53 x(3,2,13) 1 0
54 x(1,2,0) 1 0
66 x(2,3,17) 1 0
80 x(3,3,16) 1 0
81 x(1,3,3) 1 0
89 C 13 -1
